####################################################################### 
# 
# This file contains crystal structure data downloaded from the 
# Cambridge Structural Database (CSD) hosted by the Cambridge 
# Crystallographic Data Centre (CCDC).
# 
# Full information about CCDC data access policies and citation 
# guidelines are available at http://www.ccdc.cam.ac.uk/access/V1 
# 
# Audit and citation data items may have been added by the CCDC. 
# Please retain this information to preserve the provenance of 
# this file and to allow appropriate attribution of the data. 
# 
#######################################################################

data_(S)
_audit_block_doi                 10.5517/ccqccfv
_database_code_depnum_ccdc_archive 'CCDC 666327'
loop_
_citation_id
_citation_doi
_citation_year
1 10.1021/ja065603a 2007
_audit_update_record             
;
2007-11-06 deposited with the CCDC.	2024-07-24 downloaded from the CCDC.
;

_audit_creation_method           SHELXL-97
_chemical_name_systematic        
;
(S)-3,3,3-trifluoro-2-hydroxy-2-methylpropionic acid
;
_chemical_name_common            ?
_chemical_melting_point          383K
_chemical_formula_moiety         'C4 H5 F3 O3'
_chemical_formula_sum            'C4 H5 F3 O3'
_chemical_formula_weight         158.08

loop_
_atom_type_symbol
_atom_type_description
_atom_type_scat_dispersion_real
_atom_type_scat_dispersion_imag
_atom_type_scat_source
C C 0.0033 0.0016 'International Tables Vol C Tables 4.2.6.8 and 6.1.1.4'
H H 0.0000 0.0000 'International Tables Vol C Tables 4.2.6.8 and 6.1.1.4'
O O 0.0106 0.0060 'International Tables Vol C Tables 4.2.6.8 and 6.1.1.4'
F F 0.0171 0.0103 'International Tables Vol C Tables 4.2.6.8 and 6.1.1.4'

_symmetry_cell_setting           Monoclinic
_symmetry_space_group_name_H-M   C2

loop_
_symmetry_equiv_pos_as_xyz
'x, y, z'
'-x, y, -z'
'x+1/2, y+1/2, z'
'-x+1/2, y+1/2, -z'

_cell_length_a                   10.726(5)
_cell_length_b                   5.892(2)
_cell_length_c                   10.546(7)
_cell_angle_alpha                90.00
_cell_angle_beta                 113.550(7)
_cell_angle_gamma                90.00
_cell_volume                     611.0(5)
_cell_formula_units_Z            4
_cell_measurement_temperature    100(2)
_cell_measurement_reflns_used    1612
_cell_measurement_theta_min      3.83
_cell_measurement_theta_max      27.80

_exptl_crystal_description       plate
_exptl_crystal_colour            colorless
_exptl_crystal_size_max          0.46
_exptl_crystal_size_mid          0.06
_exptl_crystal_size_min          0.03
_exptl_crystal_density_meas      ?
_exptl_crystal_density_diffrn    1.719
_exptl_crystal_density_method    'not measured'
_exptl_crystal_F_000             320
_exptl_absorpt_coefficient_mu    0.197
_exptl_absorpt_correction_type   multi-scan
_exptl_absorpt_correction_T_min  0.9148
_exptl_absorpt_correction_T_max  0.9941
_exptl_absorpt_process_details   'SADABS (Sheldrick, 2002)'

_exptl_special_details           
;
?
;

_diffrn_ambient_temperature      100(2)
_diffrn_radiation_wavelength     0.71073
_diffrn_radiation_type           MoK\a
_diffrn_radiation_source         'fine-focus sealed tube'
_diffrn_radiation_monochromator  graphite
_diffrn_measurement_device_type  'Bruker APEX'
_diffrn_measurement_method       '\w scans'
_diffrn_detector_area_resol_mean ?
_diffrn_standards_number         0
_diffrn_standards_interval_count ?
_diffrn_standards_interval_time  ?
_diffrn_standards_decay_%        ?
_diffrn_reflns_number            2404
_diffrn_reflns_av_R_equivalents  0.0229
_diffrn_reflns_av_sigmaI/netI    0.0344
_diffrn_reflns_limit_h_min       -12
_diffrn_reflns_limit_h_max       13
_diffrn_reflns_limit_k_min       -7
_diffrn_reflns_limit_k_max       7
_diffrn_reflns_limit_l_min       -12
_diffrn_reflns_limit_l_max       12
_diffrn_reflns_theta_min         2.11
_diffrn_reflns_theta_max         26.00
_reflns_number_total             1184
_reflns_number_gt                1093
_reflns_threshold_expression     I>2\s(I)

_computing_data_collection       'Bruker SMART'
_computing_cell_refinement       'Bruker SMART'
_computing_data_reduction        'Bruker SAINT'
_computing_structure_solution    'SHELXTL (Sheldrick, 2000)'
_computing_structure_refinement  'SHELXTL (Sheldrick, 2000)'
_computing_molecular_graphics    'SHELXTL (Sheldrick, 2000)'
_computing_publication_material  'SHELXTL (Sheldrick, 2000)'

_refine_special_details          
;
Refinement of F^2^ against ALL reflections. The weighted R-factor wR and
goodness of fit S are based on F^2^, conventional R-factors R are based
on F, with F set to zero for negative F^2^. The threshold expression of
F^2^ > 2sigma(F^2^) is used only for calculating R-factors(gt) etc. and is
not relevant to the choice of reflections for refinement. R-factors based
on F^2^ are statistically about twice as large as those based on F, and R-
factors based on ALL data will be even larger.
;

_refine_ls_structure_factor_coef Fsqd
_refine_ls_matrix_type           full
_refine_ls_weighting_scheme      calc
_refine_ls_weighting_details     
'calc w=1/[\s^2^(Fo^2^)+(0.0900P)^2^+0.2000P] where P=(Fo^2^+2Fc^2^)/3'
_atom_sites_solution_primary     direct
_atom_sites_solution_secondary   difmap
_atom_sites_solution_hydrogens   geom
_refine_ls_hydrogen_treatment    mixed
_refine_ls_extinction_method     none
_refine_ls_extinction_coef       ?
_refine_ls_abs_structure_details 'Flack H D (1983), Acta Cryst. A39, 876-881'
_refine_ls_abs_structure_Flack   1.1(14)
_chemical_absolute_configuration syn
_refine_ls_number_reflns         1184
_refine_ls_number_parameters     98
_refine_ls_number_restraints     1
_refine_ls_R_factor_all          0.0502
_refine_ls_R_factor_gt           0.0463
_refine_ls_wR_factor_ref         0.1230
_refine_ls_wR_factor_gt          0.1200
_refine_ls_goodness_of_fit_ref   1.007
_refine_ls_restrained_S_all      1.007
_refine_ls_shift/su_max          0.001
_refine_ls_shift/su_mean         0.000

loop_
_atom_site_label
_atom_site_type_symbol
_atom_site_fract_x
_atom_site_fract_y
_atom_site_fract_z
_atom_site_U_iso_or_equiv
_atom_site_adp_type
_atom_site_occupancy
_atom_site_symmetry_multiplicity
_atom_site_calc_flag
_atom_site_refinement_flags
_atom_site_disorder_assembly
_atom_site_disorder_group
F1 F 0.3285(2) 0.7173(3) 0.40221(19) 0.0279(5) Uani 1 1 d . . .
F2 F 0.41810(16) 0.5024(3) 0.29687(18) 0.0266(5) Uani 1 1 d . . .
F3 F 0.3372(2) 0.3569(4) 0.4355(2) 0.0315(5) Uani 1 1 d . . .
O1 O 0.1685(2) 0.6743(3) 0.1259(2) 0.0185(5) Uani 1 1 d . . .
H1 H 0.204(4) 0.635(6) 0.068(4) 0.022 Uiso 1 1 d . . .
O3 O 0.1583(3) 0.0938(4) 0.2137(2) 0.0246(6) Uani 1 1 d . . .
H3 H 0.153(4) -0.017(8) 0.170(4) 0.029 Uiso 1 1 d . . .
O2 O 0.1876(3) 0.2583(4) 0.0359(2) 0.0233(5) Uani 1 1 d . . .
C1 C 0.3159(3) 0.5161(5) 0.3391(3) 0.0192(6) Uani 1 1 d . . .
C2 C 0.0624(3) 0.5151(5) 0.2660(3) 0.0175(6) Uani 1 1 d . . .
H2A H -0.0249 0.4997 0.1866 0.026 Uiso 1 1 d R . .
H2B H 0.0669 0.6637 0.3093 0.026 Uiso 1 1 d R . .
H2C H 0.0708 0.3952 0.3334 0.026 Uiso 1 1 d R . .
C3 C 0.1782(3) 0.4940(5) 0.2175(3) 0.0136(6) Uani 1 1 d . . .
C4 C 0.1743(3) 0.2663(5) 0.1440(3) 0.0147(6) Uani 1 1 d . . .

loop_
_atom_site_aniso_label
_atom_site_aniso_U_11
_atom_site_aniso_U_22
_atom_site_aniso_U_33
_atom_site_aniso_U_23
_atom_site_aniso_U_13
_atom_site_aniso_U_12
F1 0.0258(11) 0.0274(11) 0.0272(10) -0.0126(8) 0.0071(8) -0.0035(8)
F2 0.0140(8) 0.0283(10) 0.0405(11) -0.0022(9) 0.0141(8) 0.0009(8)
F3 0.0279(11) 0.0340(11) 0.0250(10) 0.0120(9) 0.0025(8) -0.0019(9)
O1 0.0284(12) 0.0094(10) 0.0226(11) 0.0013(8) 0.0154(10) 0.0019(8)
O3 0.0453(15) 0.0092(10) 0.0284(13) -0.0013(9) 0.0243(12) 0.0002(10)
O2 0.0367(14) 0.0144(10) 0.0256(12) -0.0012(8) 0.0197(10) 0.0016(9)
C1 0.0195(14) 0.0173(14) 0.0227(15) -0.0008(13) 0.0106(12) -0.0007(14)
C2 0.0161(13) 0.0150(13) 0.0254(14) -0.0044(13) 0.0124(12) 0.0003(13)
C3 0.0156(13) 0.0090(13) 0.0186(13) 0.0002(12) 0.0094(11) 0.0005(12)
C4 0.0155(14) 0.0117(13) 0.0167(13) 0.0001(11) 0.0062(11) 0.0028(11)

_geom_special_details            
;
All esds (except the esd in the dihedral angle between two l.s. planes)
are estimated using the full covariance matrix. The cell esds are taken
into account individually in the estimation of esds in distances, angles
and torsion angles; correlations between esds in cell parameters are only
used when they are defined by crystal symmetry. An approximate (isotropic)
treatment of cell esds is used for estimating esds involving l.s. planes.
;

loop_
_geom_bond_atom_site_label_1
_geom_bond_atom_site_label_2
_geom_bond_distance
_geom_bond_site_symmetry_2
_geom_bond_publ_flag
F1 C1 1.340(4) . ?
F2 C1 1.340(3) . ?
F3 C1 1.335(4) . ?
O1 C3 1.411(3) . ?
O1 H1 0.87(4) . ?
O3 C4 1.305(4) . ?
O3 H3 0.79(5) . ?
O2 C4 1.205(4) . ?
C1 C3 1.527(4) . ?
C2 C3 1.525(3) . ?
C2 H2A 0.9800 . ?
C2 H2B 0.9800 . ?
C2 H2C 0.9800 . ?
C3 C4 1.542(4) . ?

loop_
_geom_angle_atom_site_label_1
_geom_angle_atom_site_label_2
_geom_angle_atom_site_label_3
_geom_angle
_geom_angle_site_symmetry_1
_geom_angle_site_symmetry_3
_geom_angle_publ_flag
C3 O1 H1 110(2) . . ?
C4 O3 H3 108(3) . . ?
F3 C1 F1 106.9(2) . . ?
F3 C1 F2 107.3(2) . . ?
F1 C1 F2 106.6(2) . . ?
F3 C1 C3 113.2(2) . . ?
F1 C1 C3 111.4(2) . . ?
F2 C1 C3 111.2(2) . . ?
C3 C2 H2A 109.5 . . ?
C3 C2 H2B 109.5 . . ?
H2A C2 H2B 109.5 . . ?
C3 C2 H2C 109.5 . . ?
H2A C2 H2C 109.5 . . ?
H2B C2 H2C 109.5 . . ?
O1 C3 C2 108.7(2) . . ?
O1 C3 C1 107.0(2) . . ?
C2 C3 C1 110.8(2) . . ?
O1 C3 C4 109.3(2) . . ?
C2 C3 C4 112.2(2) . . ?
C1 C3 C4 108.6(2) . . ?
O2 C4 O3 126.4(3) . . ?
O2 C4 C3 121.4(2) . . ?
O3 C4 C3 112.2(2) . . ?

loop_
_geom_torsion_atom_site_label_1
_geom_torsion_atom_site_label_2
_geom_torsion_atom_site_label_3
_geom_torsion_atom_site_label_4
_geom_torsion
_geom_torsion_site_symmetry_1
_geom_torsion_site_symmetry_2
_geom_torsion_site_symmetry_3
_geom_torsion_site_symmetry_4
_geom_torsion_publ_flag
F3 C1 C3 O1 178.8(2) . . . . ?
F1 C1 C3 O1 58.4(3) . . . . ?
F2 C1 C3 O1 -60.3(3) . . . . ?
F3 C1 C3 C2 60.4(3) . . . . ?
F1 C1 C3 C2 -60.1(3) . . . . ?
F2 C1 C3 C2 -178.7(2) . . . . ?
F3 C1 C3 C4 -63.3(3) . . . . ?
F1 C1 C3 C4 176.3(2) . . . . ?
F2 C1 C3 C4 57.6(3) . . . . ?
O1 C3 C4 O2 12.8(4) . . . . ?
C2 C3 C4 O2 133.5(3) . . . . ?
C1 C3 C4 O2 -103.7(3) . . . . ?
O1 C3 C4 O3 -168.5(2) . . . . ?
C2 C3 C4 O3 -47.8(3) . . . . ?
C1 C3 C4 O3 75.1(3) . . . . ?

loop_
_geom_hbond_atom_site_label_D
_geom_hbond_atom_site_label_H
_geom_hbond_atom_site_label_A
_geom_hbond_distance_DH
_geom_hbond_distance_HA
_geom_hbond_distance_DA
_geom_hbond_angle_DHA
_geom_hbond_site_symmetry_A
O1 H1 O2 0.87(4) 2.03(4) 2.765(3) 142(3) 4
O1 H1 O2 0.87(4) 2.24(4) 2.666(3) 110(3) .
O3 H3 O1 0.79(5) 1.90(5) 2.657(3) 160(4) 1_545

_diffrn_measured_fraction_theta_max 0.996
_diffrn_reflns_theta_full        26.00
_diffrn_measured_fraction_theta_full 0.996
_refine_diff_density_max         0.395
_refine_diff_density_min         -0.265
_refine_diff_density_rms         0.086
